specification part:
=====================
NAME : <string>
TYPE : <string> (TSP/ATSP/SOP/HCP/CVRP/TOUR)
COMMENT : <string>
DIMENSION : <int>
CAPACITY : <not needed>
EDGE_WEIGHT_TYPE : <string> (EXPLICIT/EUC_2D/EUC_3D/MAX_2D/MAX_3D/MAN_2D
                             MAN_3D/CEIL_2D/GEO/ATT/XRAY1/XRAY2/SPECIAL)
EDGE_WEIGHT_FORMAT : <string> (FUNCTION/FULL_MATRIX/UPPER_ROW/LOWER_ROW...)
EDGE_DATA_FORMAT : <string> (EDGE_LIST/ADJ_LIST)
NODE_COORD_TYPE : <string> (TWOD_COORDS/THREED_COORDS/NO_COORDS)
DISPLAY_DATA_TYPE : <string> (COORD_DISPLAY/TWOD_DISPLAY/NO_DISPLAY)

data part:
===========
NODE_COORD_SECTION :
    <int> <real> <real> = node no, x, y
DEPOT_SECTION : not required
DEMAND_SECTION : not required
EDGE_DATA_SECTION :
    if EDGE_LIST - <int> <int>
                   <int> <int>
                   ...
                   -1
    if ADJ_LIST - <int> <int> <int> ... -1 (first is start and rest connected)
                  ...
                  -1
FIXED_EDGES_SECTION : not required
DISPLAY_DATA_SECTION : not required
TOUR_SECTION : see later...
EDGE_WEIGHT_SECTION : later...

